Instance: E256-14k.dat
Class:  4
  255 --- number of customers (no depot)
   51 --- number of vehicles
  606 --- number of items
Capacity - height - width of vehicles
  1000     40     20
Node - x - y - demand
    0     0.0   -15.0     0.0
    1    -1.0   -14.0   300.0
    2     1.0   -14.0   300.0
    3    -2.0   -13.0   180.0
    4     0.0   -13.0   300.0
    5     2.0   -13.0   180.0
    6    -3.0   -12.0   128.0
    7    -1.0   -12.0   180.0
    8     1.0   -12.0   180.0
    9     3.0   -12.0   128.0
   10    -4.0   -11.0   100.0
   11    -2.0   -11.0   128.0
   12     0.0   -11.0   180.0
   13     2.0   -11.0   128.0
   14     4.0   -11.0   100.0
   15    -5.0   -10.0    81.0
   16    -3.0   -10.0   100.0
   17    -1.0   -10.0   128.0
   18     1.0   -10.0   128.0
   19     3.0   -10.0   100.0
   20     5.0   -10.0    81.0
   21    -6.0    -9.0    69.0
   22    -4.0    -9.0    81.0
   23    -2.0    -9.0   100.0
   24     0.0    -9.0   128.0
   25     2.0    -9.0   100.0
   26     4.0    -9.0    81.0
   27     6.0    -9.0    69.0
   28    -7.0    -8.0    60.0
   29    -5.0    -8.0    69.0
   30    -3.0    -8.0    81.0
   31    -1.0    -8.0   100.0
   32     1.0    -8.0   100.0
   33     3.0    -8.0    81.0
   34     5.0    -8.0    69.0
   35     7.0    -8.0    60.0
   36    -8.0    -7.0    52.0
   37    -6.0    -7.0    60.0
   38    -4.0    -7.0    69.0
   39    -2.0    -7.0    81.0
   40     0.0    -7.0   100.0
   41     2.0    -7.0    81.0
   42     4.0    -7.0    69.0
   43     6.0    -7.0    60.0
   44     8.0    -7.0    52.0
   45    -9.0    -6.0    47.0
   46    -7.0    -6.0    52.0
   47    -5.0    -6.0    60.0
   48    -3.0    -6.0    69.0
   49    -1.0    -6.0    81.0
   50     1.0    -6.0    81.0
   51     3.0    -6.0    69.0
   52     5.0    -6.0    60.0
   53     7.0    -6.0    52.0
   54     9.0    -6.0    47.0
   55   -10.0    -5.0    42.0
   56    -8.0    -5.0    47.0
   57    -6.0    -5.0    52.0
   58    -4.0    -5.0    60.0
   59    -2.0    -5.0    69.0
   60     0.0    -5.0    81.0
   61     2.0    -5.0    69.0
   62     4.0    -5.0    60.0
   63     6.0    -5.0    52.0
   64     8.0    -5.0    47.0
   65    10.0    -5.0    42.0
   66   -11.0    -4.0    39.0
   67    -9.0    -4.0    42.0
   68    -7.0    -4.0    47.0
   69    -5.0    -4.0    52.0
   70    -3.0    -4.0    60.0
   71    -1.0    -4.0    69.0
   72     1.0    -4.0    69.0
   73     3.0    -4.0    60.0
   74     5.0    -4.0    52.0
   75     7.0    -4.0    47.0
   76     9.0    -4.0    42.0
   77    11.0    -4.0    39.0
   78   -12.0    -3.0    36.0
   79   -10.0    -3.0    39.0
   80    -8.0    -3.0    42.0
   81    -6.0    -3.0    47.0
   82    -4.0    -3.0    52.0
   83    -2.0    -3.0    60.0
   84     0.0    -3.0    69.0
   85     2.0    -3.0    60.0
   86     4.0    -3.0    52.0
   87     6.0    -3.0    47.0
   88     8.0    -3.0    42.0
   89    10.0    -3.0    39.0
   90    12.0    -3.0    36.0
   91   -13.0    -2.0    33.0
   92   -11.0    -2.0    36.0
   93    -9.0    -2.0    39.0
   94    -7.0    -2.0    42.0
   95    -5.0    -2.0    47.0
   96    -3.0    -2.0    52.0
   97    -1.0    -2.0    60.0
   98     1.0    -2.0    60.0
   99     3.0    -2.0    52.0
  100     5.0    -2.0    47.0
  101     7.0    -2.0    42.0
  102     9.0    -2.0    39.0
  103    11.0    -2.0    36.0
  104    13.0    -2.0    33.0
  105   -14.0    -1.0    31.0
  106   -12.0    -1.0    33.0
  107   -10.0    -1.0    36.0
  108    -8.0    -1.0    39.0
  109    -6.0    -1.0    42.0
  110    -4.0    -1.0    47.0
  111    -2.0    -1.0    52.0
  112     0.0    -1.0    60.0
  113     2.0    -1.0    52.0
  114     4.0    -1.0    47.0
  115     6.0    -1.0    42.0
  116     8.0    -1.0    39.0
  117    10.0    -1.0    36.0
  118    12.0    -1.0    33.0
  119    14.0    -1.0    31.0
  120   -15.0     0.0    29.0
  121   -13.0     0.0    31.0
  122   -11.0     0.0    33.0
  123    -9.0     0.0    36.0
  124    -7.0     0.0    39.0
  125    -5.0     0.0    42.0
  126    -3.0     0.0    47.0
  127    -1.0     0.0    52.0
  128     1.0     0.0    52.0
  129     3.0     0.0    47.0
  130     5.0     0.0    42.0
  131     7.0     0.0    39.0
  132     9.0     0.0    36.0
  133    11.0     0.0    33.0
  134    13.0     0.0    31.0
  135    15.0     0.0    29.0
  136   -14.0     1.0    29.0
  137   -12.0     1.0    31.0
  138   -10.0     1.0    33.0
  139    -8.0     1.0    36.0
  140    -6.0     1.0    39.0
  141    -4.0     1.0    42.0
  142    -2.0     1.0    47.0
  143     0.0     1.0    52.0
  144     2.0     1.0    47.0
  145     4.0     1.0    42.0
  146     6.0     1.0    39.0
  147     8.0     1.0    36.0
  148    10.0     1.0    33.0
  149    12.0     1.0    31.0
  150    14.0     1.0    29.0
  151   -13.0     2.0    29.0
  152   -11.0     2.0    31.0
  153    -9.0     2.0    33.0
  154    -7.0     2.0    36.0
  155    -5.0     2.0    39.0
  156    -3.0     2.0    42.0
  157    -1.0     2.0    47.0
  158     1.0     2.0    47.0
  159     3.0     2.0    42.0
  160     5.0     2.0    39.0
  161     7.0     2.0    36.0
  162     9.0     2.0    33.0
  163    11.0     2.0    31.0
  164    13.0     2.0    29.0
  165   -12.0     3.0    29.0
  166   -10.0     3.0    31.0
  167    -8.0     3.0    33.0
  168    -6.0     3.0    36.0
  169    -4.0     3.0    39.0
  170    -2.0     3.0    42.0
  171     0.0     3.0    47.0
  172     2.0     3.0    42.0
  173     4.0     3.0    39.0
  174     6.0     3.0    36.0
  175     8.0     3.0    33.0
  176    10.0     3.0    31.0
  177    12.0     3.0    29.0
  178   -11.0     4.0    29.0
  179    -9.0     4.0    31.0
  180    -7.0     4.0    33.0
  181    -5.0     4.0    36.0
  182    -3.0     4.0    39.0
  183    -1.0     4.0    42.0
  184     1.0     4.0    42.0
  185     3.0     4.0    39.0
  186     5.0     4.0    36.0
  187     7.0     4.0    33.0
  188     9.0     4.0    31.0
  189    11.0     4.0    29.0
  190   -10.0     5.0    29.0
  191    -8.0     5.0    31.0
  192    -6.0     5.0    33.0
  193    -4.0     5.0    36.0
  194    -2.0     5.0    39.0
  195     0.0     5.0    42.0
  196     2.0     5.0    39.0
  197     4.0     5.0    36.0
  198     6.0     5.0    33.0
  199     8.0     5.0    31.0
  200    10.0     5.0    29.0
  201    -9.0     6.0    29.0
  202    -7.0     6.0    31.0
  203    -5.0     6.0    33.0
  204    -3.0     6.0    36.0
  205    -1.0     6.0    39.0
  206     1.0     6.0    39.0
  207     3.0     6.0    36.0
  208     5.0     6.0    33.0
  209     7.0     6.0    31.0
  210     9.0     6.0    29.0
  211    -8.0     7.0    29.0
  212    -6.0     7.0    31.0
  213    -4.0     7.0    33.0
  214    -2.0     7.0    36.0
  215     0.0     7.0    39.0
  216     2.0     7.0    36.0
  217     4.0     7.0    33.0
  218     6.0     7.0    31.0
  219     8.0     7.0    29.0
  220    -7.0     8.0    29.0
  221    -5.0     8.0    31.0
  222    -3.0     8.0    33.0
  223    -1.0     8.0    36.0
  224     1.0     8.0    36.0
  225     3.0     8.0    33.0
  226     5.0     8.0    31.0
  227     7.0     8.0    29.0
  228    -6.0     9.0    29.0
  229    -4.0     9.0    31.0
  230    -2.0     9.0    33.0
  231     0.0     9.0    36.0
  232     2.0     9.0    33.0
  233     4.0     9.0    31.0
  234     6.0     9.0    29.0
  235    -5.0    10.0    29.0
  236    -3.0    10.0    31.0
  237    -1.0    10.0    33.0
  238     1.0    10.0    33.0
  239     3.0    10.0    31.0
  240     5.0    10.0    29.0
  241    -4.0    11.0    29.0
  242    -2.0    11.0    31.0
  243     0.0    11.0    33.0
  244     2.0    11.0    31.0
  245     4.0    11.0    29.0
  246    -3.0    12.0    29.0
  247    -1.0    12.0    31.0
  248     1.0    12.0    31.0
  249     3.0    12.0    29.0
  250    -2.0    13.0    29.0
  251     0.0    13.0    31.0
  252     2.0    13.0    29.0
  253    -1.0    14.0    29.0
  254     1.0    14.0    29.0
  255     0.0    15.0    29.0
Node - number of items - h - w for each item
    0   0
    1   4    7    7    4    6   29    4    9    3
    2   1    5    7
    3   2   13    6   14    3
    4   4    8    9    5    4   28    3   15    2
    5   3    5    8    7    6   15    4
    6   1   14    7
    7   2   10    6    6    6
    8   1   15    6
    9   3    8    9    5    9    5    5
   10   4    4   13    7   10   28    3   13    3
   11   1   15    3
   12   2    7    6   20    3
   13   2   17    3   14    3
   14   3    5   14    6   12   16    2
   15   1    4    7
   16   1   10    7
   17   2   14    6    4    6
   18   4    5   13   12    7   12    6   11    3
   19   2    5    8    7    3
   20   3    4   11   12    7   23    3
   21   3   27    3   22    3   13    2
   22   4   10    7    7    7    9    6   11    4
   23   1    9    6
   24   1    4   12
   25   3   14    7   14    2    8    2
   26   4    5   12    6    9   11    5   19    3
   27   4    7   13    8   12    5    9   11    2
   28   3    6   14    7    8    7    2
   29   4    4   13    6    5   20    3   16    2
   30   1    5    8
   31   4    8   12    7    5   16    4   17    2
   32   1   12    8
   33   4    6   12   12    7   17    4   31    3
   34   2    4   13    7    7
   35   3    4    5   31    4   22    3
   36   1    7   10
   37   4    6    6    7    5    6    4   17    2
   38   2   14    5    6    5
   39   3    6    8    4    6    9    3
   40   2   25    3   12    3
   41   3    6   11   13    3   30    2
   42   4    8    5   25    4    9    4   30    3
   43   3   10    8    6    6    5    3
   44   3    7    6   12    3    6    3
   45   4    5   13    5   12   10    4   29    2
   46   4   14    6    8    4   31    3    8    3
   47   2    6    7   22    3
   48   4    5   13    6   12    5   10    6    6
   49   2   13    7    6    7
   50   1   23    3
   51   3   15    7   29    4   18    3
   52   1    7    9
   53   3    5   13    6    6   24    2
   54   4    6   12   14    6   12    6   16    3
   55   2    6   11    5   11
   56   4    5   10    8    6    8    4   30    3
   57   2    8   13   26    2
   58   1    8    7
   59   2    8    6    5    6
   60   3    8   10   11    8    6    8
   61   2    4    6   30    2
   62   1   14    3
   63   2    4    5   13    3
   64   2    7    7   14    3
   65   1   28    4
   66   1   15    6
   67   3   13    7   26    3   20    3
   68   3    5   10    4    9   14    7
   69   4    6    8    4    7   22    3   17    3
   70   1   16    5
   71   4    7    6   30    3   26    3   20    3
   72   3    6    8    5    6   10    5
   73   3    4    7   14    5   16    3
   74   2   11    5   31    3
   75   4    5   14    5   12    5    7   18    3
   76   2    6    3   31    2
   77   2    6   11   17    3
   78   2    4   13    5   10
   79   3    6   14   26    3   17    3
   80   3    7    9    6    7    7    3
   81   3    5    8    6    7    4    6
   82   4    5   13   16    8   14    5   23    2
   83   2    6    9   27    4
   84   2    5   11   21    2
   85   4    7    9   13    7    7    6   13    3
   86   4    5    8   10    4    9    4   31    3
   87   3    5    8    8    6   12    4
   88   2    4    8    4    6
   89   1    7    9
   90   2   15    3   31    2
   91   2   31    3   26    3
   92   1    6    8
   93   3    6   13    6    6   28    3
   94   3    5   14    5    8   15    2
   95   2    6   11   20    3
   96   4    7   11   15    4    9    4   14    2
   97   1   25    3
   98   2    6    6   15    3
   99   3   10    4   27    3   15    2
  100   3   15    4    5    4   13    3
  101   3   26    4    6    4   25    2
  102   4    6   12   30    2   18    2   16    2
  103   1    6   12
  104   3   26    3   19    3   21    2
  105   2    7   14    5    4
  106   4    7    9    5    8   25    4   15    3
  107   4    9    6    4    6   14    5    5    5
  108   1    5    6
  109   1   26    3
  110   2   15    4    7    4
  111   1    8    5
  112   4    6   14   20    4    9    3   15    2
  113   4    7    8   22    4   13    3   11    3
  114   1   16    3
  115   1    4   12
  116   1    9    3
  117   2    7    7   23    3
  118   4    5   11   31    3    6    3   24    2
  119   1   30    2
  120   2    6    9   11    3
  121   1    5   10
  122   1   24    3
  123   4    6    7   14    4   13    4   28    3
  124   2    6   10    7    4
  125   2    8   12    7    7
  126   4    4    8    8    7    7    6   15    2
  127   2    7   13    4    7
  128   1   15    4
  129   4   29    4    9    4   32    3   29    2
  130   4    7   14   12    7    7    7   12    2
  131   2   14    3   29    2
  132   1   17    3
  133   1    4    5
  134   1    6   14
  135   3    8   12    4    7   21    2
  136   4   11    8   30    4   22    4    7    4
  137   4    7    8    6    7   13    4   11    2
  138   2    5   13   28    4
  139   2    6   14    5    9
  140   3    8    9   27    4    5    2
  141   3    4    5   26    3   11    3
  142   4   14    6    9    5    5    4   22    3
  143   2    5    9   15    4
  144   4    5   11    7   10    6    8    7    4
  145   2   17    4   19    2
  146   2    6    8   16    6
  147   1   15    3
  148   2   15    4   14    4
  149   1   32    4
  150   2   13    6    7    6
  151   3    6    7   14    6    4    4
  152   1    6    6
  153   3    7   12   13    4    5    3
  154   4    4   13    5    5   16    3    7    3
  155   1    6   11
  156   2   24    4   28    3
  157   4    5   11    6   10   10    5   29    2
  158   4   10    8    7    6   15    4   13    4
  159   4    6   13    7    9   10    4   31    2
  160   3    8   12    5    5   10    2
  161   1   28    2
  162   3    7    9   10    6   13    3
  163   4    5   10    6    9    6    8   24    2
  164   3   13    7    9    5   22    3
  165   4   11    8    5    8    6    6   20    3
  166   2   10    6   20    3
  167   2    6   11    5    8
  168   1   15    4
  169   3    4    7    7    6   14    4
  170   3    5    7    9    5   18    4
  171   1    5    5
  172   1    7    5
  173   3    6    5   29    3   16    3
  174   3   11    8   23    4   16    3
  175   4    6    6    6    6   24    4   10    2
  176   1    5   11
  177   3   15    4   29    3    8    2
  178   1    6    5
  179   1   14    4
  180   1    7    5
  181   1   13    8
  182   2   11    5   31    3
  183   1   12    2
  184   2    5    9   10    7
  185   4    7   14    5    6    8    5   21    2
  186   4    5   14    8    6   30    4   14    4
  187   2   14    6   16    3
  188   3    7   12    7    5   14    4
  189   2   12    6    6    6
  190   2    6   12    5    6
  191   2   30    4   24    3
  192   3    6    5    6    5   27    3
  193   3    6   11   10    7   15    3
  194   3   21    4   18    3   13    3
  195   3    5   14   14    3    7    3
  196   2    7   13   17    2
  197   1   14    7
  198   4    6   11    5    8   25    3    4    3
  199   1   30    2
  200   1    7   13
  201   3    7    6   13    4   17    3
  202   1    6    5
  203   1    7   12
  204   1    6    6
  205   2    8    6    7    4
  206   1    6   13
  207   4    4   11   11    7   20    4    6    4
  208   2    7   13   14    4
  209   1   28    3
  210   1   30    2
  211   1   22    3
  212   1    7   11
  213   3    7    6   16    5    4    5
  214   3    6    7   29    4   12    4
  215   1   14    5
  216   3    6   13    5    5   13    3
  217   4   15    8    7    7    5    5    5    4
  218   1    6    7
  219   1    8    3
  220   2    6    5   29    3
  221   1    7   13
  222   3   12    5    6    4   16    2
  223   1    8   12
  224   3   11    7    4    4   20    2
  225   1    4    9
  226   4    6   10    5    4   19    3   19    2
  227   1   13    2
  228   3    7    6   11    5   16    3
  229   1    7    7
  230   3    6    8    5    6   11    4
  231   1    6    5
  232   2    6    6   14    4
  233   1    7    8
  234   1   16    3
  235   4    7    6   25    4   30    2   15    2
  236   4    5   10    8    6   16    4   15    4
  237   4    7    9    6    7    4    4   14    3
  238   3    8   14    5   12    6   11
  239   1    6   13
  240   1   27    3
  241   1    8    4
  242   1   17    4
  243   3    5   10   10    8   16    3
  244   4   10    6    9    5   22    3   13    3
  245   2    8    9    5    7
  246   4    5   13    6    8   11    5   12    3
  247   2    9    7   22    4
  248   1    7    4
  249   3    5   12   16    4   17    3
  250   3   12    6    6    5   28    2
  251   2    5    6    7    2
  252   3    4   11    9    7   20    2
  253   3    7    7    5    6    6    5
  254   2   16    4   15    3
  255   1    6   12
